Maximize

7 y_0 + 9 y_1 + 5 y_2


Subject To

a0: x_0_0 + x_0_1 + x_0_2 <= 10
a1: x_1_0 + x_1_1 + x_1_2 <= 5
a2: x_2_0 + x_2_1 + x_2_2 <= 8
a3: x_3_0 + x_3_1 + x_3_2 <= 2
a4: x_4_0 + x_4_1 + x_4_2 <= 5
b0: 1 x_0_0 + 0 x_1_0 + 0 x_2_0 + 1 x_3_0 + 0 x_4_0 - 2 y_0 = 0
b1: 1 x_0_1 + 0 x_1_1 + 0 x_2_1 + 1 x_3_1 + 0 x_4_1 - 8 y_1 = 0
b2: 1 x_0_2 + 0 x_1_2 + 0 x_2_2 + 1 x_3_2 + 0 x_4_2 - 2 y_2 = 0
b3: 0 x_0_0 + 1 x_1_0 + 0 x_2_0 + 0 x_3_0 + 0 x_4_0 - 0 y_0 = 0
b4: 0 x_0_1 + 1 x_1_1 + 0 x_2_1 + 0 x_3_1 + 0 x_4_1 - 4 y_1 = 0
b5: 0 x_0_2 + 1 x_1_2 + 0 x_2_2 + 0 x_3_2 + 0 x_4_2 - 0 y_2 = 0
b6: 0 x_0_0 + 0 x_1_0 + 1 x_2_0 + 0 x_3_0 + 0 x_4_0 - 5 y_0 = 0
b7: 0 x_0_1 + 0 x_1_1 + 1 x_2_1 + 0 x_3_1 + 0 x_4_1 - 3 y_1 = 0
b8: 0 x_0_2 + 0 x_1_2 + 1 x_2_2 + 0 x_3_2 + 0 x_4_2 - 0 y_2 = 0
b9: 0 x_0_0 + 0 x_1_0 + 0 x_2_0 + 0 x_3_0 + 1 x_4_0 - 0 y_0 = 0
b10: 0 x_0_1 + 0 x_1_1 + 0 x_2_1 + 0 x_3_1 + 1 x_4_1 - 0 y_1 = 0
b11: 0 x_0_2 + 0 x_1_2 + 0 x_2_2 + 0 x_3_2 + 1 x_4_2 - 7 y_2 = 0





General

 x_0_0 x_0_1 x_0_2 x_1_0 x_1_1 x_1_2 x_2_0 x_2_1 x_2_2 x_3_0 x_3_1 x_3_2 x_4_0 x_4_1 x_4_2



End
